200
150
100
100
100
100
99
99
98
98
97
96
96
95
95
94
94
94
93
91
90
90
89
89
89
89
88
88
88
88
88
88
87
85
85
84
84
84
83
83
82
82
81
80
80
78
78
78
78
78
78
78
77
77
77
76
76
76
75
75
74
74
74
74
74
73
73
72
70
67
67
67
66
66
66
66
66
65
65
65
63
63
63
62
62
61
61
61
61
61
60
60
59
58
57
56
54
54
54
53
52
52
51
50
50
49
48
48
48
47
47
47
47
46
46
46
45
45
45
42
42
39
39
39
38
38
37
37
37
36
36
35
34
34
34
33
33
31
31
31
31
31
29
28
28
27
27
26
26
26
26
26
26
25
25
25
24
23
22
22
22
21
21
21
21
20
20
19
16
16
16
15
15
15
14
14
13
13
12
12
12
11
10
10
10
9
9
9
8
7
7
6
6
6
5
5
5
3
3
3
2
1
